(set-logic ALL)
(declare-fun i1 () Int)
(declare-fun it178 () Int)
(declare-fun it179 () Int)
(declare-fun i2 () Int)
(declare-fun i3 () Int)
(declare-fun it180 () Int)
(declare-fun i4 () Int)
(declare-fun it181 () Int)
(declare-fun i5 () Int)
(declare-fun it182 () Int)
(declare-fun i6 () Int)
(declare-fun it183 () Int)
(declare-fun i7 () Int)
(declare-fun it184 () Int)
(declare-fun it415 () Int)
(declare-fun it416 () Int)
(declare-fun it417 () Int)
(declare-fun it418 () Int)
(declare-fun it419 () Int)
(declare-fun it420 () Int)
(declare-fun it421 () Int)
(declare-fun it456 () Int)
(declare-fun it457 () Int)
(declare-fun it458 () Int)
(declare-fun it459 () Int)
(declare-fun it460 () Int)
(declare-fun it461 () Int)
(declare-fun it462 () Int)
(declare-fun it470 () Int)
(declare-fun it471 () Int)
(declare-fun it472 () Int)
(declare-fun it473 () Int)
(declare-fun it474 () Int)
(declare-fun it475 () Int)
(declare-fun it476 () Int)
(declare-fun it117 () Int)
(assert (= (+ i1 (- 1)) 0))
(assert (= (+ it178 (- 2)) 0))
(assert (= (+ (* i2 (- 1)) it179 (- 1)) 0))
(assert (= (+ it180 (* i3 (- 1))) 0))
(assert (= (+ it181 (* i4 (- 1))) 0))
(assert (= (+ it182 (* i5 (- 1))) 0))
(assert (= (+ it183 (* i6 (- 1))) 0))
(assert (= (+ it184 (* i7 (- 1))) 0))
(assert (and (<= (+ it183 (- 5)) 0)
     (> it180 0)
     (<= (+ (* it183 (- 1)) (- 5)) 0)
     (= (+ it178 (- 2)) 0)))
(assert (= (+ it415 (- 3)) 0))
(assert (= (+ it416 (* it179 (- 1)) (- 2)) 0))
(assert (= (+ it417 (* it180 (- 1))) 0))
(assert (= (+ (* it180 (- 1)) it418) 0))
(assert (= (+ (* it184 (- 1)) it419) 0))
(assert (= (+ it420 (* it183 (- 1))) 0))
(assert (= (+ it421 (* it184 (- 1))) 0))
(assert (let ((a!1 (< (+ (* (exp it418 2) (+ 0 4))
                 (exp it420 5)
                 (+ 0 (* it419 (- 3)))
                 (* (exp it420 3) (+ 0 2)))
              (+ 0 0)))
      (a!2 (< (+ (exp it418 2) (exp it420 5) (+ 0 (* it419 (- 1)))) (+ 0 0))))
  (and (> it418 0) a!1 (= (+ it415 (- 3)) 0) a!2 (< (* it418 (- 2)) 0))))
(assert (= (+ it456 (- 3)) 0))
(assert (= (+ it457 (* it416 (- 1)) (- 2)) 0))
(assert (= (+ (* it417 (- 1)) it458) 0))
(assert (= (+ (* it418 (- 4)) it459) 0))
(assert (let ((a!1 (+ (+ 0 (+ it460 (* it419 (- 9)))) (* (exp it420 3) (+ 0 8)))))
  (= a!1 (+ 0 0))))
(assert (= (+ (* it420 (- 1)) it461) 0))
(assert (= (+ (* it421 (- 1)) it462) 0))
(assert (let ((a!1 (< (+ (exp it459 2) (exp it461 5) (+ 0 (* it460 (- 1)))) (+ 0 0))))
  (and (= (+ it456 (- 3)) 0) (> it459 0) a!1)))
(assert (= (+ it470 (- 3)) 0))
(assert (= (+ (* it457 (- 1)) it471 (- 1)) 0))
(assert (= (+ it472 (* it458 (- 1))) 0))
(assert (= (+ it473 (* it459 2)) 0))
(assert (let ((a!1 (+ (+ 0 (+ (* it460 (- 3)) it474)) (* (exp it461 3) (+ 0 2)))))
  (= a!1 (+ 0 0))))
(assert (= (+ (* it461 (- 1)) it475) 0))
(assert (= (+ it476 (* it462 (- 1))) 0))
(assert (let ((a!1 (* (* (exp 9 (+ it117 (- 1))) (exp it475 3)) (+ 0 (- 3))))
      (a!2 (* (exp (exp 4 (+ it117 (- 1))) (+ 0 2)) (exp it473 2)))
      (a!3 (* (* (exp 9 (+ it117 (- 1))) (+ 0 it474)) (+ 0 3)))
      (a!5 (* (* (exp 9 (+ it117 (- 1))) (exp it475 3)) (+ 0 (- 1))))
      (a!7 (> (+ (* (exp it473 2) (+ 0 (- 1)))
                 (+ 0 it474)
                 (* (exp it475 5) (+ 0 (- 1))))
              (+ 0 0)))
      (a!8 (> (+ (* (exp it475 3) (+ 0 (- 2)))
                 (* (exp it473 2) (+ 0 (- 4)))
                 (+ 0 (* it474 3))
                 (* (exp it475 5) (+ 0 (- 1))))
              (+ 0 0))))
(let ((a!4 (> (+ (exp it475 3)
                 a!1
                 (* a!2 (+ 0 (- 4)))
                 a!3
                 (* (exp it475 5) (+ 0 (- 1))))
              (+ 0 0)))
      (a!6 (+ (exp it475 3)
              a!5
              (* a!2 (+ 0 (- 1)))
              (* (exp 9 (+ it117 (- 1))) (+ 0 it474))
              (* (exp it475 5) (+ 0 (- 1))))))
  (and (>= (+ it470 (- 3)) 0)
       (>= (+ it117 (- 1)) 0)
       (>= (+ (* it470 (- 1)) 3) 0)
       a!4
       (> a!6 (+ 0 0))
       (> it473 0)
       (> (* it473 2) 0)
       a!7
       a!8))))
(check-sat)
